50 10184

323
101
417
158
495
473
12
430
498
52
326
222
462
411
360
284
163
239
96
320
301
277
291
65
310
343
378
50
1
189
18
115
357
107
173
138
466
172
103
124
267
496
107
186
444
273
404
269
104
361
